p cnf 24 60
a 20 15 0
e 1 2 3 4 5 6 7 8 9 10 11 12 13 14 16 17 18 19 21 22 23 24 0
-3 -1 0
-3 2 0
1 -2 3 0
5 -6 -7 0
-5 6 -7 0
5 6 7 0
-5 -6 7 0
-8 -4 0
-8 7 0
4 -7 8 0
9 -6 0
9 -6 0
6 -9 0
8 -9 -10 0
-8 9 -10 0
8 9 10 0
-8 -9 10 0
10 9 -11 0
-10 -9 -11 0
10 -9 11 0
-10 9 11 0
5 -1 -12 0
-5 1 -12 0
5 1 12 0
-5 -1 12 0
11 -12 -13 0
-11 12 -13 0
11 12 13 0
-11 -12 13 0
14 -1 -15 0
-14 1 -15 0
14 1 15 0
-14 -1 15 0
16 -13 0
16 15 0
13 -15 -16 0
18 17 0
18 -4 0
-17 4 -18 0
19 17 0
19 18 0
-17 -18 -19 0
-21 14 0
-21 -20 0
-14 20 21 0
-22 -19 0
-22 21 0
19 -21 22 0
23 -16 0
23 22 0
16 -22 -23 0
-24 -3 0
-24 23 0
3 -23 24 0
7 -3 22 10 -14 0
-12 -10 -20 -21 22 0
-3 -10 -5 1 0
-5 -17 -13 0
-1 -15 -24 0
24 0
